experiment/data/hgs-res/Vrp-Set-Golden-n441/Vrp-Set-Golden-n441-hgs/0.hgs1.log
=========== Algorithm Parameters =================
---- nbGranular        is set to 20
---- mu                is set to 25
---- lambda            is set to 40
---- nbElite           is set to 4
---- nbClose           is set to 5
---- targetFeasible    is set to 0.2
---- seed              is set to 1234
---- nbIter            is set to 20000
---- timeLimit         is set to 0
---- useSwapStar       is set to 1
==================================================
----- READING INSTANCE: baseline_results/cvrp_hgs/Vrp-Set-Golden-n441/Vrp-Set-Golden-n441-hgs/0.hgs1.vrp
----- FLEET SIZE WAS NOT SPECIFIED: DEFAULT INITIALIZATION TO 16 VEHICLES
----- INSTANCE SUCCESSFULLY LOADED WITH 440 CLIENTS AND 16 VEHICLES
----- BUILDING INITIAL POPULATION
----- STARTING GENETIC ALGORITHM
It      0      2 | T(s) 1.16 | Feas 60 11913.93 11987.42 | NO-INFEASIBLE | Div 0.47 -1.00 | Feas 1.00 1.00 | Pen 17.00 0.85
It    500    144 | T(s) 4.50 | Feas 27 11727.39 11779.88 | NO-INFEASIBLE | Div 0.39 -1.00 | Feas 1.00 1.00 | Pen 7.54 0.38
It   1000     41 | T(s) 7.23 | Feas 35 11690.45 11741.59 | NO-INFEASIBLE | Div 0.39 -1.00 | Feas 1.00 1.00 | Pen 3.35 0.17
It   1500    215 | T(s) 9.83 | Feas 40 11659.01 11696.83 | Inf 6 11846.89 11893.62 | Div 0.35 0.10 | Feas 0.97 1.00 | Pen 1.49 0.10
It   2000    375 | T(s) 12.58 | Feas 42 11643.75 11667.72 | Inf 54 11697.90 11733.45 | Div 0.26 0.30 | Feas 0.81 1.00 | Pen 0.66 0.10
It   2500    875 | T(s) 15.17 | Feas 63 11643.75 11655.97 | Inf 61 11648.59 11671.07 | Div 0.25 0.29 | Feas 0.43 1.00 | Pen 0.29 0.10
It   3000    346 | T(s) 17.97 | Feas 25 11637.76 11702.14 | Inf 49 11610.84 11659.22 | Div 0.41 0.36 | Feas 0.19 1.00 | Pen 0.25 0.10
It   3500    310 | T(s) 20.87 | Feas 34 11631.48 11651.98 | Inf 29 11533.97 11625.63 | Div 0.35 0.38 | Feas 0.31 1.00 | Pen 0.22 0.10
It   4000    266 | T(s) 24.13 | Feas 48 11624.39 11658.67 | Inf 43 11570.01 11625.95 | Div 0.36 0.35 | Feas 0.17 1.00 | Pen 0.26 0.10
It   4500     38 | T(s) 27.25 | Feas 56 11613.43 11637.16 | Inf 37 11602.97 11637.88 | Div 0.34 0.35 | Feas 0.15 1.00 | Pen 0.32 0.10
It   5000    207 | T(s) 30.28 | Feas 43 11585.60 11629.12 | Inf 64 11572.11 11592.65 | Div 0.35 0.28 | Feas 0.30 1.00 | Pen 0.28 0.10
It   5500    707 | T(s) 33.30 | Feas 53 11585.60 11630.40 | Inf 58 11582.17 11597.14 | Div 0.36 0.31 | Feas 0.14 1.00 | Pen 0.34 0.10
It   6000    319 | T(s) 36.40 | Feas 50 11572.57 11613.36 | Inf 32 11576.37 11601.76 | Div 0.33 0.34 | Feas 0.29 1.00 | Pen 0.30 0.10
It   6500    819 | T(s) 39.41 | Feas 28 11572.57 11608.27 | Inf 63 11576.43 11592.50 | Div 0.37 0.33 | Feas 0.29 1.00 | Pen 0.31 0.10
It   7000    433 | T(s) 42.41 | Feas 35 11570.11 11600.33 | Inf 51 11570.86 11613.79 | Div 0.35 0.36 | Feas 0.21 1.00 | Pen 0.31 0.10
It   7500    298 | T(s) 45.47 | Feas 40 11556.05 11585.86 | Inf 36 11565.20 11588.46 | Div 0.34 0.36 | Feas 0.21 1.00 | Pen 0.31 0.10
It   8000    220 | T(s) 48.66 | Feas 28 11555.96 11591.40 | Inf 31 11555.07 11599.02 | Div 0.36 0.37 | Feas 0.13 1.00 | Pen 0.32 0.10
It   8500    236 | T(s) 51.74 | Feas 35 11547.20 11586.59 | Inf 45 11548.83 11585.00 | Div 0.35 0.34 | Feas 0.24 1.00 | Pen 0.33 0.10
It   9000     26 | T(s) 54.68 | Feas 52 11542.84 11561.35 | Inf 28 11544.42 11569.38 | Div 0.25 0.32 | Feas 0.27 1.00 | Pen 0.28 0.10
It   9500    421 | T(s) 57.60 | Feas 31 11541.13 11562.46 | Inf 60 11544.54 11565.04 | Div 0.30 0.28 | Feas 0.23 1.00 | Pen 0.34 0.10
It  10000    115 | T(s) 60.62 | Feas 59 11534.53 11554.41 | Inf 40 11531.42 11568.26 | Div 0.27 0.33 | Feas 0.18 1.00 | Pen 0.29 0.10
It  10500      4 | T(s) 63.64 | Feas 34 11524.22 11564.21 | Inf 37 11532.00 11559.40 | Div 0.32 0.32 | Feas 0.25 1.00 | Pen 0.35 0.10
It  11000    504 | T(s) 66.58 | Feas 37 11524.22 11547.85 | Inf 25 11532.07 11564.80 | Div 0.28 0.32 | Feas 0.23 1.00 | Pen 0.35 0.10
It  11500    452 | T(s) 69.44 | Feas 65 11519.85 11537.22 | Inf 55 11520.01 11535.21 | Div 0.22 0.21 | Feas 0.14 1.00 | Pen 0.36 0.10
It  12000    952 | T(s) 72.21 | Feas 36 11519.85 11532.93 | Inf 37 11518.92 11534.58 | Div 0.25 0.25 | Feas 0.18 1.00 | Pen 0.31 0.10
It  12500    374 | T(s) 75.12 | Feas 54 11516.95 11534.73 | Inf 30 11514.40 11539.12 | Div 0.25 0.27 | Feas 0.31 1.00 | Pen 0.32 0.10
It  13000    206 | T(s) 77.88 | Feas 60 11513.94 11521.88 | Inf 61 11514.52 11524.38 | Div 0.17 0.20 | Feas 0.18 1.00 | Pen 0.33 0.10
It  13500    706 | T(s) 80.75 | Feas 29 11513.94 11543.18 | Inf 45 11514.65 11532.44 | Div 0.27 0.24 | Feas 0.23 1.00 | Pen 0.33 0.10
It  14000    313 | T(s) 83.67 | Feas 62 11509.20 11520.68 | Inf 36 11514.22 11538.36 | Div 0.18 0.25 | Feas 0.18 1.00 | Pen 0.33 0.10
It  14500    351 | T(s) 86.42 | Feas 52 11509.20 11522.08 | Inf 62 11512.64 11525.32 | Div 0.19 0.21 | Feas 0.20 1.00 | Pen 0.28 0.10
It  15000    851 | T(s) 89.38 | Feas 40 11509.20 11525.07 | Inf 49 11512.69 11528.12 | Div 0.23 0.24 | Feas 0.21 1.00 | Pen 0.29 0.10
It  15500   1351 | T(s) 92.29 | Feas 47 11509.20 11530.20 | Inf 48 11510.18 11538.50 | Div 0.23 0.26 | Feas 0.16 1.00 | Pen 0.29 0.10
It  16000     13 | T(s) 95.17 | Feas 49 11506.78 11521.79 | Inf 44 11510.38 11528.67 | Div 0.23 0.26 | Feas 0.22 1.00 | Pen 0.35 0.10
It  16500    239 | T(s) 98.12 | Feas 33 11506.46 11533.17 | Inf 39 11509.97 11531.58 | Div 0.27 0.27 | Feas 0.23 1.00 | Pen 0.36 0.10
It  17000     12 | T(s) 100.96 | Feas 31 11506.01 11525.75 | Inf 56 11500.34 11522.57 | Div 0.26 0.24 | Feas 0.22 1.00 | Pen 0.31 0.10
It  17500    512 | T(s) 103.91 | Feas 62 11506.01 11522.18 | Inf 42 11500.59 11530.30 | Div 0.22 0.26 | Feas 0.31 1.00 | Pen 0.33 0.10
It  18000     63 | T(s) 106.77 | Feas 58 11502.76 11527.37 | Inf 39 11500.86 11529.33 | Div 0.24 0.26 | Feas 0.05 1.00 | Pen 0.34 0.10
It  18500    563 | T(s) 109.58 | Feas 28 11502.76 11534.47 | Inf 50 11499.96 11521.56 | Div 0.28 0.23 | Feas 0.21 1.00 | Pen 0.29 0.10
It  19000   1063 | T(s) 112.50 | Feas 39 11502.76 11520.39 | Inf 35 11500.07 11519.23 | Div 0.24 0.24 | Feas 0.31 1.00 | Pen 0.30 0.10
It  19500   1563 | T(s) 115.34 | Feas 44 11502.76 11512.10 | Inf 37 11501.27 11514.98 | Div 0.21 0.22 | Feas 0.22 1.00 | Pen 0.36 0.10
It  20000    294 | T(s) 118.18 | Feas 62 11502.34 11508.70 | Inf 29 11500.17 11511.88 | Div 0.18 0.22 | Feas 0.18 1.00 | Pen 0.31 0.10
It  20500    103 | T(s) 121.01 | Feas 53 11497.90 11513.88 | Inf 63 11498.07 11513.99 | Div 0.21 0.21 | Feas 0.11 1.00 | Pen 0.37 0.10
It  21000    603 | T(s) 123.91 | Feas 29 11497.90 11515.80 | Inf 42 11497.58 11516.68 | Div 0.24 0.23 | Feas 0.21 1.00 | Pen 0.32 0.10
It  21500    497 | T(s) 126.91 | Feas 35 11497.90 11514.62 | Inf 37 11497.65 11513.17 | Div 0.23 0.23 | Feas 0.20 1.00 | Pen 0.32 0.10
It  22000    997 | T(s) 129.78 | Feas 25 11497.90 11509.40 | Inf 65 11497.65 11507.24 | Div 0.22 0.19 | Feas 0.21 1.00 | Pen 0.32 0.10
It  22500    243 | T(s) 132.57 | Feas 41 11496.69 11508.81 | Inf 62 11497.71 11511.82 | Div 0.21 0.20 | Feas 0.18 1.00 | Pen 0.33 0.10
It  23000    743 | T(s) 135.36 | Feas 64 11496.69 11500.96 | Inf 40 11496.57 11510.20 | Div 0.16 0.22 | Feas 0.20 1.00 | Pen 0.29 0.10
It  23500   1243 | T(s) 138.11 | Feas 60 11496.69 11503.00 | Inf 36 11496.63 11509.10 | Div 0.16 0.21 | Feas 0.16 1.00 | Pen 0.29 0.10
It  24000   1743 | T(s) 141.05 | Feas 42 11496.69 11504.43 | Inf 36 11497.21 11501.30 | Div 0.19 0.18 | Feas 0.22 1.00 | Pen 0.35 0.10
It  24500     24 | T(s) 143.85 | Feas 41 11494.22 11512.60 | Inf 64 11488.52 11500.18 | Div 0.22 0.18 | Feas 0.24 1.00 | Pen 0.35 0.10
It  25000    524 | T(s) 146.79 | Feas 50 11494.22 11520.05 | Inf 46 11488.52 11510.34 | Div 0.24 0.22 | Feas 0.23 1.00 | Pen 0.35 0.10
It  25500   1024 | T(s) 149.58 | Feas 27 11494.22 11536.72 | Inf 31 11487.59 11501.12 | Div 0.28 0.19 | Feas 0.31 1.00 | Pen 0.30 0.10
It  26000   1524 | T(s) 152.42 | Feas 36 11494.22 11524.49 | Inf 62 11488.95 11496.84 | Div 0.26 0.14 | Feas 0.22 1.00 | Pen 0.37 0.10
It  26500   2024 | T(s) 155.27 | Feas 48 11494.22 11507.91 | Inf 51 11487.96 11493.12 | Div 0.21 0.12 | Feas 0.17 1.00 | Pen 0.32 0.10
It  27000    203 | T(s) 158.13 | Feas 25 11494.22 11548.48 | Inf 32 11488.09 11493.51 | Div 0.28 0.15 | Feas 0.17 1.00 | Pen 0.33 0.10
It  27500    703 | T(s) 160.91 | Feas 42 11494.22 11511.70 | Inf 64 11488.22 11492.39 | Div 0.22 0.12 | Feas 0.30 1.00 | Pen 0.34 0.10
It  28000    117 | T(s) 163.63 | Feas 56 11491.22 11500.43 | Inf 45 11488.36 11491.69 | Div 0.18 0.12 | Feas 0.19 1.00 | Pen 0.34 0.10
It  28500    195 | T(s) 166.34 | Feas 43 11491.22 11496.75 | Inf 46 11489.24 11494.35 | Div 0.17 0.12 | Feas 0.15 1.00 | Pen 0.41 0.10
It  29000    695 | T(s) 169.12 | Feas 54 11491.22 11495.81 | Inf 61 11488.64 11491.87 | Div 0.15 0.11 | Feas 0.32 1.00 | Pen 0.36 0.10
It  29500   1195 | T(s) 171.88 | Feas 27 11491.22 11513.25 | Inf 49 11488.77 11498.63 | Div 0.24 0.17 | Feas 0.19 1.00 | Pen 0.36 0.10
It  30000    424 | T(s) 174.66 | Feas 40 11490.01 11500.66 | Inf 36 11489.50 11497.21 | Div 0.20 0.15 | Feas 0.13 1.00 | Pen 0.44 0.10
It  30500    924 | T(s) 177.30 | Feas 36 11490.01 11500.13 | Inf 37 11487.68 11497.32 | Div 0.20 0.16 | Feas 0.34 1.00 | Pen 0.32 0.10
It  31000    170 | T(s) 180.12 | Feas 25 11490.01 11515.58 | Inf 37 11487.12 11499.40 | Div 0.22 0.17 | Feas 0.08 1.00 | Pen 0.39 0.10
It  31500    670 | T(s) 182.96 | Feas 47 11490.01 11493.39 | Inf 29 11486.07 11504.17 | Div 0.15 0.20 | Feas 0.19 1.00 | Pen 0.34 0.10
It  32000    371 | T(s) 185.74 | Feas 29 11487.75 11500.02 | Inf 55 11486.35 11492.75 | Div 0.20 0.13 | Feas 0.32 1.00 | Pen 0.35 0.10
It  32500     10 | T(s) 188.46 | Feas 29 11484.68 11501.14 | Inf 28 11485.40 11495.93 | Div 0.20 0.18 | Feas 0.29 1.00 | Pen 0.31 0.10
It  33000    510 | T(s) 191.29 | Feas 65 11484.68 11493.91 | Inf 65 11485.53 11494.16 | Div 0.14 0.15 | Feas 0.16 1.00 | Pen 0.31 0.10
It  33500   1010 | T(s) 193.96 | Feas 30 11484.68 11493.98 | Inf 56 11485.65 11492.63 | Div 0.16 0.14 | Feas 0.17 1.00 | Pen 0.32 0.10
It  34000   1510 | T(s) 196.69 | Feas 63 11484.68 11493.82 | Inf 55 11487.08 11495.79 | Div 0.15 0.16 | Feas 0.12 1.00 | Pen 0.39 0.10
It  34500   2010 | T(s) 199.36 | Feas 27 11484.68 11502.90 | Inf 25 11486.18 11510.41 | Div 0.21 0.23 | Feas 0.33 1.00 | Pen 0.35 0.10
It  35000    304 | T(s) 202.09 | Feas 25 11483.55 11496.26 | Inf 48 11486.46 11497.68 | Div 0.18 0.17 | Feas 0.31 1.00 | Pen 0.36 0.10
It  35500    152 | T(s) 204.78 | Feas 64 11483.55 11488.63 | Inf 65 11486.46 11496.48 | Div 0.09 0.15 | Feas 0.22 1.00 | Pen 0.36 0.10
It  36000    652 | T(s) 207.45 | Feas 44 11483.55 11487.58 | Inf 60 11485.49 11491.08 | Div 0.08 0.12 | Feas 0.09 1.00 | Pen 0.37 0.10
It  36500   1152 | T(s) 210.16 | Feas 41 11483.55 11490.82 | Inf 37 11484.93 11490.50 | Div 0.13 0.15 | Feas 0.16 1.00 | Pen 0.32 0.10
It  37000    478 | T(s) 212.83 | Feas 28 11483.55 11489.54 | Inf 64 11484.38 11489.92 | Div 0.12 0.13 | Feas 0.20 1.00 | Pen 0.33 0.10
It  37500    229 | T(s) 215.31 | Feas 55 11482.34 11484.27 | Inf 46 11484.00 11487.62 | Div 0.05 0.11 | Feas 0.29 1.00 | Pen 0.29 0.10
It  38000    729 | T(s) 217.92 | Feas 36 11482.34 11487.27 | Inf 46 11484.64 11489.99 | Div 0.10 0.12 | Feas 0.21 1.00 | Pen 0.35 0.10
It  38500    267 | T(s) 220.40 | Feas 55 11482.34 11485.46 | Inf 40 11484.12 11487.89 | Div 0.07 0.11 | Feas 0.24 1.00 | Pen 0.36 0.10
It  39000    767 | T(s) 222.86 | Feas 64 11482.34 11484.04 | Inf 27 11484.20 11515.05 | Div 0.05 0.19 | Feas 0.22 1.00 | Pen 0.37 0.10
It  39500    199 | T(s) 225.54 | Feas 59 11481.69 11486.08 | Inf 53 11484.27 11490.33 | Div 0.09 0.13 | Feas 0.19 1.00 | Pen 0.37 0.10
It  40000    699 | T(s) 228.32 | Feas 39 11481.69 11494.22 | Inf 44 11484.34 11490.15 | Div 0.12 0.13 | Feas 0.22 1.00 | Pen 0.38 0.10
It  40500   1199 | T(s) 231.00 | Feas 37 11481.69 11488.61 | Inf 29 11483.84 11499.61 | Div 0.13 0.19 | Feas 0.17 1.00 | Pen 0.33 0.10
It  41000   1699 | T(s) 233.68 | Feas 33 11481.69 11485.30 | Inf 60 11483.90 11490.15 | Div 0.10 0.12 | Feas 0.23 1.00 | Pen 0.34 0.10
It  41500   2199 | T(s) 236.25 | Feas 41 11481.69 11487.70 | Inf 32 11484.04 11491.60 | Div 0.12 0.14 | Feas 0.32 1.00 | Pen 0.35 0.10
It  42000   2699 | T(s) 238.80 | Feas 41 11481.69 11488.53 | Inf 25 11483.98 11502.58 | Div 0.11 0.18 | Feas 0.17 1.00 | Pen 0.35 0.10
It  42500     62 | T(s) 241.32 | Feas 40 11481.69 11483.46 | Inf 50 11484.12 11485.69 | Div 0.07 0.08 | Feas 0.14 1.00 | Pen 0.36 0.10
It  43000    562 | T(s) 243.82 | Feas 38 11481.69 11482.32 | Inf 41 11484.20 11485.24 | Div 0.05 0.08 | Feas 0.21 1.00 | Pen 0.37 0.10
It  43500   1062 | T(s) 246.21 | Feas 40 11481.69 11482.01 | Inf 59 11483.64 11484.39 | Div 0.04 0.07 | Feas 0.16 1.00 | Pen 0.32 0.10
It  44000   1562 | T(s) 248.67 | Feas 45 11481.69 11482.24 | Inf 43 11484.27 11484.90 | Div 0.05 0.07 | Feas 0.23 1.00 | Pen 0.38 0.10
It  44500   2062 | T(s) 251.02 | Feas 44 11481.69 11481.91 | Inf 31 11484.43 11485.01 | Div 0.04 0.07 | Feas 0.14 1.00 | Pen 0.39 0.10
It  45000   2562 | T(s) 253.45 | Feas 49 11481.69 11481.79 | Inf 51 11483.33 11483.40 | Div 0.04 0.05 | Feas 0.17 1.00 | Pen 0.29 0.10
It  45500   3062 | T(s) 255.99 | Feas 40 11481.69 11484.08 | Inf 61 11476.15 11487.85 | Div 0.06 0.10 | Feas 0.19 1.00 | Pen 0.34 0.10
It  46000   3562 | T(s) 258.54 | Feas 59 11481.69 11481.77 | Inf 40 11473.88 11487.51 | Div 0.03 0.11 | Feas 0.28 1.00 | Pen 0.30 0.10
It  46500   4062 | T(s) 261.27 | Feas 63 11481.69 11481.89 | Inf 38 11474.78 11490.86 | Div 0.04 0.13 | Feas 0.32 1.00 | Pen 0.36 0.10
It  47000   4562 | T(s) 263.97 | Feas 51 11481.69 11486.54 | Inf 32 11475.07 11493.09 | Div 0.08 0.15 | Feas 0.27 1.00 | Pen 0.37 0.10
It  47500   5062 | T(s) 266.66 | Feas 39 11481.69 11485.45 | Inf 65 11478.03 11485.66 | Div 0.07 0.10 | Feas 0.13 1.00 | Pen 0.44 0.10
It  48000   5562 | T(s) 269.27 | Feas 57 11481.69 11482.26 | Inf 38 11475.36 11481.73 | Div 0.05 0.09 | Feas 0.22 1.00 | Pen 0.38 0.10
It  48500    456 | T(s) 271.97 | Feas 34 11481.61 11486.07 | Inf 32 11475.36 11480.49 | Div 0.08 0.08 | Feas 0.17 1.00 | Pen 0.38 0.10
It  49000    956 | T(s) 274.63 | Feas 43 11481.61 11482.73 | Inf 60 11475.67 11479.69 | Div 0.06 0.08 | Feas 0.29 1.00 | Pen 0.39 0.10
It  49500   1456 | T(s) 277.35 | Feas 34 11481.61 11487.50 | Inf 60 11478.01 11482.03 | Div 0.09 0.07 | Feas 0.14 1.00 | Pen 0.46 0.10
It  50000   1956 | T(s) 280.10 | Feas 26 11481.61 11500.25 | Inf 44 11478.19 11483.31 | Div 0.13 0.08 | Feas 0.14 1.00 | Pen 0.47 0.10
It  50500   2456 | T(s) 282.84 | Feas 65 11481.61 11483.35 | Inf 60 11476.61 11478.84 | Div 0.07 0.07 | Feas 0.17 1.00 | Pen 0.41 0.10
It  51000   2956 | T(s) 285.58 | Feas 59 11481.61 11483.93 | Inf 64 11478.57 11481.38 | Div 0.07 0.06 | Feas 0.14 1.00 | Pen 0.49 0.10
It  51500   3456 | T(s) 288.34 | Feas 44 11481.61 11486.93 | Inf 31 11476.94 11481.93 | Div 0.10 0.09 | Feas 0.25 1.00 | Pen 0.42 0.10
It  52000   3956 | T(s) 291.02 | Feas 46 11481.61 11484.79 | Inf 57 11477.27 11480.35 | Div 0.09 0.07 | Feas 0.30 1.00 | Pen 0.43 0.10
It  52500    138 | T(s) 293.76 | Feas 27 11481.61 11497.02 | Inf 36 11477.49 11491.94 | Div 0.13 0.11 | Feas 0.14 1.00 | Pen 0.44 0.10
It  53000    638 | T(s) 296.59 | Feas 37 11481.61 11485.01 | Inf 31 11475.30 11487.11 | Div 0.09 0.12 | Feas 0.18 1.00 | Pen 0.38 0.10
It  53500    289 | T(s) 299.34 | Feas 63 11481.61 11484.02 | Inf 50 11475.60 11480.74 | Div 0.08 0.09 | Feas 0.37 1.00 | Pen 0.38 0.10
It  54000    789 | T(s) 301.99 | Feas 60 11481.61 11483.13 | Inf 40 11475.91 11482.62 | Div 0.07 0.10 | Feas 0.09 1.00 | Pen 0.39 0.10
It  54500   1289 | T(s) 304.73 | Feas 46 11481.61 11482.82 | Inf 63 11476.19 11481.81 | Div 0.07 0.08 | Feas 0.21 1.00 | Pen 0.40 0.10
It  55000   1789 | T(s) 307.37 | Feas 40 11481.61 11483.18 | Inf 40 11478.53 11484.71 | Div 0.07 0.11 | Feas 0.14 1.00 | Pen 0.49 0.10
It  55500   2289 | T(s) 310.03 | Feas 29 11481.61 11482.79 | Inf 62 11476.92 11481.10 | Div 0.07 0.09 | Feas 0.19 1.00 | Pen 0.42 0.10
It  56000   2789 | T(s) 312.88 | Feas 57 11481.61 11482.65 | Inf 32 11474.03 11487.11 | Div 0.07 0.13 | Feas 0.29 1.00 | Pen 0.37 0.10
It  56500     74 | T(s) 315.83 | Feas 64 11479.12 11483.23 | Inf 26 11475.52 11500.20 | Div 0.08 0.18 | Feas 0.23 1.00 | Pen 0.45 0.10
It  57000    432 | T(s) 318.77 | Feas 59 11479.12 11487.28 | Inf 39 11473.73 11485.93 | Div 0.11 0.15 | Feas 0.20 1.00 | Pen 0.39 0.10
It  57500    932 | T(s) 321.69 | Feas 62 11479.12 11484.74 | Inf 51 11473.73 11481.03 | Div 0.10 0.11 | Feas 0.28 1.00 | Pen 0.41 0.10
It  58000   1432 | T(s) 324.71 | Feas 33 11479.12 11488.73 | Inf 50 11473.25 11489.62 | Div 0.13 0.15 | Feas 0.17 1.00 | Pen 0.41 0.10
It  58500   1932 | T(s) 327.64 | Feas 60 11479.12 11486.91 | Inf 31 11473.90 11497.77 | Div 0.12 0.18 | Feas 0.21 1.00 | Pen 0.42 0.10
It  59000   2432 | T(s) 330.75 | Feas 41 11479.12 11494.92 | Inf 62 11474.59 11484.85 | Div 0.16 0.13 | Feas 0.17 1.00 | Pen 0.44 0.10
It  59500   2932 | T(s) 333.79 | Feas 58 11479.12 11493.64 | Inf 43 11474.94 11487.24 | Div 0.14 0.14 | Feas 0.21 1.00 | Pen 0.45 0.10
It  60000   3432 | T(s) 336.88 | Feas 50 11479.12 11492.29 | Inf 31 11469.28 11487.76 | Div 0.16 0.16 | Feas 0.20 1.00 | Pen 0.39 0.10
It  60500   3932 | T(s) 339.94 | Feas 64 11479.12 11494.03 | Inf 54 11470.38 11485.13 | Div 0.14 0.14 | Feas 0.35 1.00 | Pen 0.40 0.10
It  61000   4432 | T(s) 343.01 | Feas 34 11479.12 11495.59 | Inf 50 11474.63 11485.00 | Div 0.17 0.13 | Feas 0.11 1.00 | Pen 0.48 0.10
It  61500   4932 | T(s) 346.04 | Feas 50 11479.12 11496.36 | Inf 33 11471.52 11490.84 | Div 0.16 0.17 | Feas 0.21 1.00 | Pen 0.42 0.10
It  62000   5432 | T(s) 349.15 | Feas 41 11479.12 11486.41 | Inf 59 11471.52 11477.64 | Div 0.14 0.11 | Feas 0.20 1.00 | Pen 0.42 0.10
It  62500   5932 | T(s) 352.29 | Feas 42 11479.12 11498.94 | Inf 54 11471.52 11477.61 | Div 0.17 0.11 | Feas 0.17 1.00 | Pen 0.42 0.10
It  63000   6432 | T(s) 355.37 | Feas 33 11479.12 11504.56 | Inf 63 11468.12 11480.24 | Div 0.20 0.13 | Feas 0.31 1.00 | Pen 0.37 0.10
It  63500   6932 | T(s) 358.60 | Feas 59 11479.12 11502.88 | Inf 54 11468.64 11477.26 | Div 0.18 0.12 | Feas 0.21 1.00 | Pen 0.38 0.10
It  64000   7432 | T(s) 361.76 | Feas 25 11479.12 11508.41 | Inf 45 11469.17 11475.22 | Div 0.22 0.10 | Feas 0.18 1.00 | Pen 0.39 0.10
It  64500    343 | T(s) 364.96 | Feas 61 11478.41 11489.11 | Inf 29 11474.18 11484.84 | Div 0.13 0.14 | Feas 0.11 1.00 | Pen 0.47 0.10
It  65000    843 | T(s) 367.97 | Feas 52 11478.41 11499.34 | Inf 31 11471.02 11497.19 | Div 0.16 0.19 | Feas 0.34 1.00 | Pen 0.41 0.10
It  65500   1343 | T(s) 371.03 | Feas 26 11478.41 11502.76 | Inf 53 11470.82 11476.59 | Div 0.21 0.11 | Feas 0.18 1.00 | Pen 0.41 0.10
It  66000   1843 | T(s) 374.15 | Feas 39 11478.41 11497.93 | Inf 43 11467.00 11480.04 | Div 0.17 0.14 | Feas 0.27 1.00 | Pen 0.36 0.10
It  66500   2343 | T(s) 377.31 | Feas 54 11478.41 11488.05 | Inf 32 11467.50 11483.52 | Div 0.14 0.15 | Feas 0.26 1.00 | Pen 0.36 0.10
It  67000      4 | T(s) 380.45 | Feas 40 11475.91 11492.35 | Inf 64 11472.27 11480.08 | Div 0.17 0.11 | Feas 0.24 1.00 | Pen 0.44 0.10
It  67500    504 | T(s) 383.56 | Feas 32 11475.91 11501.00 | Inf 47 11472.81 11484.84 | Div 0.20 0.14 | Feas 0.13 1.00 | Pen 0.46 0.10
It  68000   1004 | T(s) 386.62 | Feas 30 11475.91 11504.98 | Inf 63 11469.60 11481.03 | Div 0.22 0.14 | Feas 0.17 1.00 | Pen 0.39 0.10
It  68500   1504 | T(s) 389.59 | Feas 52 11475.91 11497.74 | Inf 61 11473.09 11478.00 | Div 0.17 0.10 | Feas 0.15 1.00 | Pen 0.47 0.10
It  69000   2004 | T(s) 392.63 | Feas 42 11475.91 11496.71 | Inf 62 11470.71 11483.23 | Div 0.20 0.14 | Feas 0.19 1.00 | Pen 0.41 0.10
It  69500   2504 | T(s) 395.71 | Feas 34 11475.91 11491.65 | Inf 32 11471.70 11483.80 | Div 0.18 0.15 | Feas 0.34 1.00 | Pen 0.43 0.10
It  70000   3004 | T(s) 398.75 | Feas 35 11475.91 11501.56 | Inf 62 11467.90 11482.64 | Div 0.21 0.15 | Feas 0.21 1.00 | Pen 0.37 0.10
It  70500   3504 | T(s) 401.96 | Feas 28 11475.91 11503.96 | Inf 45 11472.75 11488.19 | Div 0.22 0.16 | Feas 0.14 1.00 | Pen 0.46 0.10
It  71000   4004 | T(s) 405.08 | Feas 26 11475.91 11509.64 | Inf 62 11470.03 11485.96 | Div 0.23 0.16 | Feas 0.33 1.00 | Pen 0.40 0.10
It  71500   4504 | T(s) 408.21 | Feas 51 11475.91 11485.87 | Inf 57 11469.76 11479.97 | Div 0.16 0.14 | Feas 0.26 1.00 | Pen 0.42 0.10
It  72000     11 | T(s) 411.27 | Feas 50 11474.58 11482.27 | Inf 39 11467.71 11482.82 | Div 0.14 0.16 | Feas 0.32 1.00 | Pen 0.37 0.10
It  72500    511 | T(s) 414.36 | Feas 42 11474.58 11485.18 | Inf 57 11468.30 11477.95 | Div 0.16 0.13 | Feas 0.32 1.00 | Pen 0.38 0.10
It  73000   1011 | T(s) 417.35 | Feas 30 11474.58 11493.31 | Inf 40 11468.92 11480.53 | Div 0.19 0.15 | Feas 0.27 1.00 | Pen 0.40 0.10
It  73500   1511 | T(s) 420.46 | Feas 49 11474.58 11485.74 | Inf 41 11469.56 11484.46 | Div 0.16 0.16 | Feas 0.16 1.00 | Pen 0.41 0.10
It  74000   2011 | T(s) 423.53 | Feas 30 11474.58 11498.21 | Inf 59 11469.82 11480.65 | Div 0.21 0.12 | Feas 0.18 1.00 | Pen 0.42 0.10
It  74500   2511 | T(s) 426.60 | Feas 58 11474.58 11484.95 | Inf 29 11467.65 11487.00 | Div 0.15 0.18 | Feas 0.34 1.00 | Pen 0.37 0.10
It  75000   3011 | T(s) 429.64 | Feas 57 11474.58 11482.94 | Inf 33 11470.59 11482.38 | Div 0.13 0.15 | Feas 0.12 1.00 | Pen 0.45 0.10
It  75500   3511 | T(s) 432.73 | Feas 55 11474.58 11488.94 | Inf 52 11468.55 11477.29 | Div 0.15 0.13 | Feas 0.19 1.00 | Pen 0.39 0.10
It  76000    358 | T(s) 435.86 | Feas 28 11474.58 11489.50 | Inf 54 11471.41 11483.12 | Div 0.18 0.14 | Feas 0.13 1.00 | Pen 0.47 0.10
It  76500    192 | T(s) 438.92 | Feas 63 11471.61 11481.69 | Inf 30 11469.50 11487.57 | Div 0.13 0.16 | Feas 0.20 1.00 | Pen 0.41 0.10
It  77000    692 | T(s) 442.04 | Feas 45 11471.61 11483.43 | Inf 56 11469.76 11475.91 | Div 0.15 0.11 | Feas 0.17 1.00 | Pen 0.42 0.10
It  77500   1192 | T(s) 445.06 | Feas 31 11471.61 11490.69 | Inf 39 11470.27 11477.89 | Div 0.18 0.12 | Feas 0.12 1.00 | Pen 0.44 0.10
It  78000   1692 | T(s) 448.12 | Feas 48 11471.61 11486.24 | Inf 61 11470.80 11479.19 | Div 0.15 0.13 | Feas 0.14 1.00 | Pen 0.45 0.10
It  78500     17 | T(s) 451.14 | Feas 27 11470.29 11493.03 | Inf 30 11468.48 11477.06 | Div 0.19 0.14 | Feas 0.28 1.00 | Pen 0.39 0.10
It  79000    175 | T(s) 454.15 | Feas 44 11470.29 11476.74 | Inf 58 11471.35 11475.66 | Div 0.11 0.11 | Feas 0.25 1.00 | Pen 0.47 0.10
It  79500    367 | T(s) 457.13 | Feas 62 11468.69 11477.27 | Inf 31 11469.43 11473.18 | Div 0.11 0.11 | Feas 0.38 1.00 | Pen 0.41 0.10
It  80000    243 | T(s) 460.31 | Feas 35 11468.60 11474.49 | Inf 51 11469.71 11471.62 | Div 0.11 0.09 | Feas 0.19 1.00 | Pen 0.42 0.10
It  80500    743 | T(s) 463.38 | Feas 41 11468.60 11475.48 | Inf 39 11470.22 11473.96 | Div 0.11 0.12 | Feas 0.22 1.00 | Pen 0.44 0.10
It  81000   1243 | T(s) 466.54 | Feas 59 11468.60 11474.91 | Inf 65 11468.42 11477.54 | Div 0.10 0.13 | Feas 0.27 1.00 | Pen 0.38 0.10
It  81500   1743 | T(s) 469.63 | Feas 36 11468.60 11473.45 | Inf 55 11471.30 11474.63 | Div 0.11 0.11 | Feas 0.13 1.00 | Pen 0.47 0.10
It  82000   2243 | T(s) 472.76 | Feas 61 11468.60 11472.52 | Inf 37 11469.42 11477.22 | Div 0.08 0.14 | Feas 0.35 1.00 | Pen 0.41 0.10
It  82500   2743 | T(s) 475.71 | Feas 40 11468.60 11471.83 | Inf 52 11466.91 11471.03 | Div 0.08 0.10 | Feas 0.26 1.00 | Pen 0.35 0.10
It  83000   3243 | T(s) 478.90 | Feas 27 11468.60 11471.71 | Inf 38 11469.91 11487.51 | Div 0.08 0.16 | Feas 0.22 1.00 | Pen 0.42 0.10
It  83500   3743 | T(s) 482.01 | Feas 36 11468.60 11469.89 | Inf 31 11471.98 11486.65 | Div 0.06 0.16 | Feas 0.13 1.00 | Pen 0.51 0.10
It  84000   4243 | T(s) 485.03 | Feas 36 11468.60 11469.59 | Inf 29 11468.06 11486.20 | Div 0.05 0.17 | Feas 0.33 1.00 | Pen 0.38 0.10
It  84500   4743 | T(s) 488.17 | Feas 39 11468.60 11469.94 | Inf 35 11470.69 11478.35 | Div 0.05 0.13 | Feas 0.16 1.00 | Pen 0.45 0.10
It  85000   5243 | T(s) 491.13 | Feas 58 11468.60 11468.98 | Inf 41 11468.66 11484.34 | Div 0.03 0.16 | Feas 0.20 1.00 | Pen 0.39 0.10
It  85500   5743 | T(s) 494.19 | Feas 44 11468.60 11470.18 | Inf 60 11468.98 11476.03 | Div 0.05 0.12 | Feas 0.21 1.00 | Pen 0.40 0.10
It  86000   6243 | T(s) 497.22 | Feas 35 11468.60 11469.11 | Inf 42 11469.29 11477.49 | Div 0.04 0.13 | Feas 0.22 1.00 | Pen 0.41 0.10
It  86500   6743 | T(s) 500.34 | Feas 65 11468.60 11468.85 | Inf 30 11469.61 11477.96 | Div 0.03 0.14 | Feas 0.23 1.00 | Pen 0.41 0.10
It  87000   7243 | T(s) 503.33 | Feas 28 11468.60 11469.98 | Inf 55 11469.61 11472.63 | Div 0.06 0.09 | Feas 0.17 1.00 | Pen 0.41 0.10
It  87500   7743 | T(s) 506.33 | Feas 45 11468.60 11469.25 | Inf 27 11469.86 11480.43 | Div 0.04 0.14 | Feas 0.20 1.00 | Pen 0.42 0.10
It  88000   8243 | T(s) 509.38 | Feas 27 11468.60 11469.72 | Inf 52 11469.91 11473.74 | Div 0.05 0.11 | Feas 0.12 1.00 | Pen 0.43 0.10
It  88500   8743 | T(s) 512.38 | Feas 36 11468.60 11469.24 | Inf 36 11470.08 11477.24 | Div 0.04 0.12 | Feas 0.25 1.00 | Pen 0.45 0.10
It  89000   9243 | T(s) 515.48 | Feas 52 11468.60 11468.88 | Inf 26 11468.29 11480.17 | Div 0.03 0.14 | Feas 0.20 1.00 | Pen 0.38 0.10
It  89500   9743 | T(s) 518.53 | Feas 44 11468.60 11469.89 | Inf 61 11468.29 11472.15 | Div 0.05 0.10 | Feas 0.21 1.00 | Pen 0.38 0.10
It  90000  10243 | T(s) 521.48 | Feas 52 11468.60 11468.62 | Inf 50 11468.29 11471.03 | Div 0.03 0.09 | Feas 0.20 1.00 | Pen 0.38 0.10
It  90500  10743 | T(s) 524.44 | Feas 56 11468.60 11468.75 | Inf 41 11468.60 11474.25 | Div 0.03 0.12 | Feas 0.21 1.00 | Pen 0.39 0.10
It  91000  11243 | T(s) 527.50 | Feas 31 11468.60 11470.12 | Inf 27 11469.23 11504.39 | Div 0.05 0.17 | Feas 0.31 1.00 | Pen 0.40 0.10
It  91500  11743 | T(s) 530.62 | Feas 54 11468.60 11468.68 | Inf 48 11469.55 11484.13 | Div 0.03 0.14 | Feas 0.20 1.00 | Pen 0.41 0.10
It  92000  12243 | T(s) 533.70 | Feas 65 11468.60 11468.62 | Inf 39 11471.76 11481.12 | Div 0.03 0.13 | Feas 0.15 1.00 | Pen 0.50 0.10
It  92500  12743 | T(s) 536.75 | Feas 60 11468.60 11469.05 | Inf 42 11470.06 11491.19 | Div 0.04 0.16 | Feas 0.25 1.00 | Pen 0.43 0.10
It  93000  13243 | T(s) 539.80 | Feas 30 11468.60 11471.62 | Inf 25 11470.32 11503.37 | Div 0.05 0.18 | Feas 0.24 1.00 | Pen 0.44 0.10
It  93500  13743 | T(s) 542.92 | Feas 37 11468.60 11468.81 | Inf 53 11467.93 11479.52 | Div 0.03 0.13 | Feas 0.16 1.00 | Pen 0.37 0.10
It  94000  14243 | T(s) 546.03 | Feas 56 11468.60 11468.92 | Inf 47 11470.85 11483.22 | Div 0.03 0.14 | Feas 0.19 1.00 | Pen 0.46 0.10
It  94500  14743 | T(s) 549.18 | Feas 56 11468.60 11470.00 | Inf 58 11468.85 11473.31 | Div 0.04 0.11 | Feas 0.17 1.00 | Pen 0.40 0.10
It  95000  15243 | T(s) 552.16 | Feas 41 11468.60 11468.92 | Inf 39 11469.16 11475.02 | Div 0.03 0.12 | Feas 0.19 1.00 | Pen 0.40 0.10
It  95500  15743 | T(s) 555.30 | Feas 62 11468.60 11469.31 | Inf 64 11469.76 11476.75 | Div 0.04 0.12 | Feas 0.21 1.00 | Pen 0.42 0.10
It  96000  16243 | T(s) 558.34 | Feas 31 11468.60 11469.61 | Inf 51 11470.01 11474.53 | Div 0.04 0.12 | Feas 0.24 1.00 | Pen 0.43 0.10
It  96500  16743 | T(s) 561.38 | Feas 65 11468.60 11468.80 | Inf 37 11470.53 11480.71 | Div 0.03 0.14 | Feas 0.15 1.00 | Pen 0.45 0.10
It  97000  17243 | T(s) 564.49 | Feas 52 11468.60 11469.10 | Inf 64 11470.79 11475.58 | Div 0.04 0.11 | Feas 0.09 1.00 | Pen 0.45 0.10
It  97500  17743 | T(s) 567.63 | Feas 29 11468.60 11469.43 | Inf 37 11471.34 11477.42 | Div 0.04 0.12 | Feas 0.14 1.00 | Pen 0.47 0.10
It  98000  18243 | T(s) 570.72 | Feas 46 11468.60 11469.19 | Inf 61 11471.62 11476.30 | Div 0.04 0.10 | Feas 0.20 1.00 | Pen 0.48 0.10
It  98500  18743 | T(s) 573.64 | Feas 52 11468.60 11469.18 | Inf 27 11469.70 11482.42 | Div 0.04 0.16 | Feas 0.20 1.00 | Pen 0.42 0.10
It  99000  19243 | T(s) 576.67 | Feas 52 11468.60 11469.33 | Inf 30 11471.81 11473.66 | Div 0.04 0.12 | Feas 0.12 1.00 | Pen 0.50 0.10
It  99500  19743 | T(s) 580.31 | Feas 35 11468.60 11471.16 | Inf 33 11469.96 11475.57 | Div 0.05 0.13 | Feas 0.22 1.00 | Pen 0.43 0.10
----- GENETIC ALGORITHM FINISHED AFTER 99759 ITERATIONS. TIME SPENT: 582.302
----- WRITING BEST SOLUTION IN : baseline_results/cvrp_hgs/Vrp-Set-Golden-n441/Vrp-Set-Golden-n441-hgs/0.hgs1.tour
