experiment/data/hgs-res/Vrp-Set-Golden-n441/Vrp-Set-Golden-n441-hgs/0.hgs1.tour
Route #1: 75 119 163 207 251 295 339 383 427 426 382 338 294 293 337 381 425 424 380 336 292 291 335 379 423 422 378 334 290 246 247 248 249 250 206 162 117 73
Route #2: 32 76 120 164 208 252 296 340 384 428 429 385 341 297 298 342 386 430 431 387 343 299 300 344 388 432 433 389 345 301 302 346 390 434 435 391 347 303 259 258 257 256 255 254 253 209 165 121 77 33
Route #3: 3 47 46 45 88 87 86 85 84 83 82 81 80 124 125 126 127 128 129 130 131 132 89 90 91 135 134 133 176 175 174 173 172 171 170 169 168 167 123 79 78 34
Route #4: 48 92 136 180 179 178 177 220 264 221 265 309 353 397 440 396 352 308 307 351 395 439 438 394 350 306 305 349 393 437 436 392 348 304 260 261 262 263 219 218 217 216 215 214 213 212 211 210 166 122
Route #5: 50 49 93 137 181 225 224 223 222 266 310 354 398 399 355 311 267 268 312 356 400 401 357 313 269 270 314 358 402 403 359 315 271 227 226 182 138 94 95 52
Route #6: 35 36 37 38 39 40 41 42 43 44 1 2 4 5 6 7 8 9 10 11 12 13 14 15 18 19 20 21 22 23 24 25 26 27
Route #7: 51 96 140 139 183 184 185 186 230 229 228 272 316 360 404 405 361 317 273 274 318 362 406 407 363 319 275 276 320 364 408 409 365 321 277 233 232 231 187 143 142 141 97 98 99 55 54 53
Route #8: 57 101 145 146 147 191 235 236 237 238 239 283 327 371 415 414 370 326 282 281 325 369 413 412 368 324 280 279 323 367 411 410 366 322 278 234 190 189 188 144 100 56
Route #9: 16 60 59 58 102 103 104 149 150 151 152 153 154 155 156 157 158 159 160 116 115 114 113 112 111 110 109 108 107 106 62 63 64 65 66 67 68 69 70 71 72 28 29 30
Route #10: 17 61 105 148 192 193 194 195 196 240 284 328 372 416 417 373 329 285 286 330 374 418 419 375 331 287 288 332 376 420 421 377 333 289 245 244 243 242 241 197 198 199 200 201 202 203 204 205 161 118 74 31
Cost 11468.6
